decision_x1=[0,4];
decision_x2=[0,4];
decision_x3=[0,4];
decision_x4=[0,4];
decision_x5=[0,4];
decision_x6=[0,4];
decision_x7=[0,4];
decision_x8=[0,4];
decision_x9=[0,4];
decision_x10=[0,4];
decision_x11=[0,4];
decision_x12=[0,4];
decision_x13=[0,4];
decision_x14=[0,4];
decision_x15=[0,4];
random_y1=[0,4];
random_y2=[0,4];
random_y3=[0,4];
constraint_x4_x1=[
0,1,9.1|
0,2,2.3|
0,3,7|
0,4,0.26|
1,0,5.9|
1,2,0.6|
1,3,3|
1,4,7.3|
2,0,7.7|
2,1,2|
2,3,1.8|
2,4,8|
3,0,2.6|
3,1,6|
3,2,7.5|
3,4,4.5|
4,0,7.5|
4,1,0.28|
4,2,2.1|
4,3,2.6|
];
constraint_x4_x3=[
0,1,2.7|
0,2,8.4|
0,3,6.1|
0,4,3.7|
1,0,2|
1,2,0.55|
1,3,5.2|
1,4,9|
2,0,5.4|
2,1,5.1|
2,3,0.046|
2,4,1.2|
3,0,1|
3,1,8.1|
3,2,0.95|
3,4,6.4|
4,0,2|
4,1,6.3|
4,2,7.4|
4,3,9.7|
];
constraint_x5_x3=[
0,1,7.7|
0,2,1.9|
0,3,1.6|
0,4,9.4|
1,0,9.3|
1,2,1.1|
1,3,3.7|
1,4,8.4|
2,0,1.7|
2,1,4|
2,3,1.4|
2,4,5.9|
3,0,4.8|
3,1,8.4|
3,2,7.9|
3,4,2.5|
4,0,4|
4,1,6.5|
4,2,6.8|
4,3,2.7|
];
constraint_x5_x4=[
0,1,1.6|
0,2,1.6|
0,3,4.9|
0,4,2|
1,0,2.9|
1,2,4.2|
1,3,3.5|
1,4,9.1|
2,0,0.64|
2,1,0.74|
2,3,7.9|
2,4,9.7|
3,0,2.3|
3,1,8.9|
3,2,1.8|
3,4,4.1|
4,0,0.97|
4,1,3.9|
4,2,6.1|
4,3,1.1|
];
constraint_x6_x3=[
0,1,2.8|
0,2,4.1|
0,3,1.7|
0,4,9.6|
1,0,1.1|
1,2,7.8|
1,3,6.8|
1,4,4.8|
2,0,6.3|
2,1,3.6|
2,3,5.7|
2,4,9.1|
3,0,5.8|
3,1,3.5|
3,2,4|
3,4,6.1|
4,0,2|
4,1,3.7|
4,2,5.4|
4,3,2.3|
];
constraint_x6_x4=[
0,1,9.2|
0,2,7.1|
0,3,9.4|
0,4,2.7|
1,0,7.7|
1,2,7.9|
1,3,0.15|
1,4,4.4|
2,0,0.52|
2,1,3.9|
2,3,5|
2,4,2.7|
3,0,3.8|
3,1,9.8|
3,2,0.084|
3,4,0.66|
4,0,2.2|
4,1,5.9|
4,2,0.36|
4,3,5.3|
];
constraint_x7_x1=[
0,1,6.4|
0,2,4.9|
0,3,4.4|
0,4,3.7|
1,0,0.72|
1,2,2.4|
1,3,2|
1,4,2.7|
2,0,5.1|
2,1,1.1|
2,3,9.9|
2,4,2.4|
3,0,6.8|
3,1,2.4|
3,2,0.025|
3,4,6.3|
4,0,9|
4,1,2.1|
4,2,1.5|
4,3,2.3|
];
constraint_x7_x3=[
0,1,0.43|
0,2,7.1|
0,3,1.1|
0,4,2.9|
1,0,10|
1,2,0.78|
1,3,3.6|
1,4,6.1|
2,0,1.6|
2,1,0.29|
2,3,0.13|
2,4,6.8|
3,0,0.28|
3,1,1.4|
3,2,2.4|
3,4,2.7|
4,0,2.9|
4,1,8.8|
4,2,7.6|
4,3,3.3|
];
constraint_x7_x4=[
0,1,4.3|
0,2,5.7|
0,3,8.5|
0,4,9.5|
1,0,4.4|
1,2,2.2|
1,3,2.4|
1,4,0.9|
2,0,8.1|
2,1,3.2|
2,3,3.7|
2,4,3.4|
3,0,8.3|
3,1,2|
3,2,6.7|
3,4,1.3|
4,0,4.3|
4,1,0.32|
4,2,1.3|
4,3,0.39|
];
constraint_x7_x5=[
0,1,5|
0,2,4|
0,3,4.7|
0,4,4.4|
1,0,1.5|
1,2,3.3|
1,3,6.5|
1,4,3.9|
2,0,9.7|
2,1,8.3|
2,3,4.4|
2,4,8.9|
3,0,2.3|
3,1,7.4|
3,2,9.8|
3,4,4|
4,0,2.3|
4,1,5.2|
4,2,1.1|
4,3,4.8|
];
constraint_x7_x6=[
0,1,1.4|
0,2,9.2|
0,3,5.8|
0,4,7.5|
1,0,8.5|
1,2,5.7|
1,3,6.2|
1,4,6.9|
2,0,7.7|
2,1,7.6|
2,3,5.1|
2,4,0.68|
3,0,3.4|
3,1,9.3|
3,2,8.3|
3,4,5.9|
4,0,8|
4,1,7.5|
4,2,3.2|
4,3,8.8|
];
constraint_x8_x1=[
0,1,9.4|
0,2,0.29|
0,3,6.6|
0,4,3.4|
1,0,8.9|
1,2,3.8|
1,3,6.7|
1,4,8.5|
2,0,9.6|
2,1,1.9|
2,3,5.8|
2,4,1.3|
3,0,7|
3,1,2.9|
3,2,9.1|
3,4,3|
4,0,4.8|
4,1,2.1|
4,2,0.97|
4,3,5.3|
];
constraint_x8_x2=[
0,1,4.8|
0,2,1.3|
0,3,3.3|
0,4,6.2|
1,0,1.8|
1,2,8.1|
1,3,2.5|
1,4,0.53|
2,0,5.7|
2,1,1.3|
2,3,6.7|
2,4,3.8|
3,0,5.9|
3,1,3.3|
3,2,9.1|
3,4,4.1|
4,0,3.6|
4,1,0.15|
4,2,2.7|
4,3,5|
];
constraint_x8_x4=[
0,1,6|
0,2,4.7|
0,3,5.1|
0,4,0.21|
1,0,8.6|
1,2,6.5|
1,3,5.9|
1,4,5.3|
2,0,5.8|
2,1,7.1|
2,3,5.9|
2,4,8.5|
3,0,8.9|
3,1,2.3|
3,2,5.7|
3,4,6.6|
4,0,2.2|
4,1,10|
4,2,8.9|
4,3,7.7|
];
constraint_x9_x1=[
0,1,2.9|
0,2,2|
0,3,2.2|
0,4,4.2|
1,0,9|
1,2,7.2|
1,3,5.2|
1,4,2.7|
2,0,1|
2,1,2.8|
2,3,1.6|
2,4,5.6|
3,0,3.6|
3,1,5.1|
3,2,0.79|
3,4,5.7|
4,0,1.2|
4,1,6.6|
4,2,2.4|
4,3,5.5|
];
constraint_x9_x2=[
0,1,0.28|
0,2,9.8|
0,3,5.1|
0,4,5.2|
1,0,1.3|
1,2,2.1|
1,3,0.67|
1,4,7.2|
2,0,1.7|
2,1,8.9|
2,3,1.2|
2,4,4.4|
3,0,8.5|
3,1,3.5|
3,2,5.3|
3,4,8.9|
4,0,2.4|
4,1,5|
4,2,0.25|
4,3,8.7|
];
constraint_x9_x4=[
0,1,9.9|
0,2,1.6|
0,3,1.2|
0,4,9.5|
1,0,7.7|
1,2,2.4|
1,3,4.3|
1,4,5.4|
2,0,6.8|
2,1,3.4|
2,3,0.82|
2,4,0.37|
3,0,8.7|
3,1,4.2|
3,2,1.9|
3,4,7|
4,0,1.6|
4,1,6.1|
4,2,3.9|
4,3,2.8|
];
constraint_x9_x5=[
0,1,7.5|
0,2,7.3|
0,3,9.7|
0,4,4|
1,0,5.1|
1,2,2|
1,3,3.6|
1,4,1.9|
2,0,6.2|
2,1,9.2|
2,3,5.8|
2,4,2.2|
3,0,0.64|
3,1,0.74|
3,2,3.9|
3,4,4.4|
4,0,8.1|
4,1,6.6|
4,2,4.2|
4,3,5.2|
];
constraint_x9_x6=[
0,1,6.5|
0,2,5.1|
0,3,1.1|
0,4,9.8|
1,0,0.46|
1,2,1.9|
1,3,5.7|
1,4,6.5|
2,0,9.4|
2,1,5.8|
2,3,1.4|
2,4,2.4|
3,0,2.8|
3,1,6.7|
3,2,1.2|
3,4,5.9|
4,0,6.5|
4,1,8.1|
4,2,5.4|
4,3,2.3|
];
constraint_x9_x7=[
0,1,8.1|
0,2,1.7|
0,3,0.49|
0,4,8.3|
1,0,6.4|
1,2,6.9|
1,3,1.7|
1,4,2|
2,0,7.8|
2,1,7.5|
2,3,7.9|
2,4,9.8|
3,0,0.51|
3,1,0.18|
3,2,8.5|
3,4,1.5|
4,0,7|
4,1,0.27|
4,2,1.1|
4,3,7.5|
];
constraint_x10_x1=[
0,1,6.5|
0,2,9.5|
0,3,7.4|
0,4,1.9|
1,0,3.8|
1,2,0.44|
1,3,7.4|
1,4,5.9|
2,0,1.5|
2,1,4.9|
2,3,8|
2,4,0.91|
3,0,4.9|
3,1,7.2|
3,2,4.1|
3,4,7.4|
4,0,1.6|
4,1,9.2|
4,2,2.7|
4,3,6.2|
];
constraint_x10_x3=[
0,1,2.7|
0,2,3|
0,3,3.4|
0,4,0.2|
1,0,4.5|
1,2,4.3|
1,3,9.7|
1,4,9.5|
2,0,5|
2,1,6.4|
2,3,2.8|
2,4,6|
3,0,7.7|
3,1,4.3|
3,2,2.5|
3,4,9.3|
4,0,7.3|
4,1,2.2|
4,2,7.6|
4,3,9.9|
];
constraint_x10_x8=[
0,1,7.6|
0,2,4.5|
0,3,3.3|
0,4,9.4|
1,0,8.1|
1,2,0.12|
1,3,1.7|
1,4,0.58|
2,0,9.8|
2,1,3.1|
2,3,6.3|
2,4,0.44|
3,0,3.1|
3,1,1.8|
3,2,5|
3,4,1.3|
4,0,4.2|
4,1,0.84|
4,2,8.2|
4,3,1.6|
];
constraint_x10_x9=[
0,1,4.8|
0,2,1|
0,3,7.3|
0,4,2|
1,0,1.7|
1,2,1.5|
1,3,7.2|
1,4,1.4|
2,0,5.9|
2,1,2.6|
2,3,3.5|
2,4,3.3|
3,0,9.3|
3,1,6.6|
3,2,2.5|
3,4,1.1|
4,0,0.69|
4,1,5.3|
4,2,9.5|
4,3,4.6|
];
constraint_x11_x1=[
0,1,3.1|
0,2,5.1|
0,3,5.1|
0,4,7.9|
1,0,2.1|
1,2,2.1|
1,3,1.3|
1,4,9.1|
2,0,2.4|
2,1,5.7|
2,3,2.2|
2,4,7.8|
3,0,5.9|
3,1,5.3|
3,2,9.3|
3,4,2.9|
4,0,6.2|
4,1,2|
4,2,4.2|
4,3,7.2|
];
constraint_x11_x5=[
0,1,1.2|
0,2,4.7|
0,3,2.9|
0,4,9.7|
1,0,6.5|
1,2,4|
1,3,1.4|
1,4,9.6|
2,0,4.5|
2,1,5.3|
2,3,9.6|
2,4,5.4|
3,0,9.5|
3,1,0.78|
3,2,0.51|
3,4,8.1|
4,0,7.8|
4,1,1.8|
4,2,5.4|
4,3,8.4|
];
constraint_x11_x7=[
0,1,0.64|
0,2,3.1|
0,3,3.5|
0,4,0.91|
1,0,4|
1,2,3.4|
1,3,4.1|
1,4,5.4|
2,0,8.6|
2,1,4.7|
2,3,9.1|
2,4,0.78|
3,0,2.9|
3,1,5.9|
3,2,2.5|
3,4,1.1|
4,0,9.2|
4,1,2.3|
4,2,4.4|
4,3,3|
];
constraint_x12_x2=[
0,1,4|
0,2,4.1|
0,3,9.6|
0,4,6.3|
1,0,8.3|
1,2,8.7|
1,3,0.59|
1,4,5.2|
2,0,0.78|
2,1,4.2|
2,3,3.9|
2,4,8.3|
3,0,0.25|
3,1,2|
3,2,7.3|
3,4,5.8|
4,0,6.7|
4,1,1.3|
4,2,1|
4,3,9.7|
];
constraint_x12_x3=[
0,1,1.8|
0,2,7.1|
0,3,5.3|
0,4,4.6|
1,0,6.8|
1,2,2|
1,3,3|
1,4,2.3|
2,0,1.4|
2,1,4.4|
2,3,4.9|
2,4,9.6|
3,0,2.1|
3,1,2.8|
3,2,1|
3,4,6.9|
4,0,9.5|
4,1,5.4|
4,2,7.5|
4,3,1.7|
];
constraint_x12_x5=[
0,1,3.6|
0,2,9.3|
0,3,4.8|
0,4,6.8|
1,0,9|
1,2,3.2|
1,3,1.4|
1,4,6.1|
2,0,6.2|
2,1,3.2|
2,3,9.8|
2,4,5.1|
3,0,0.67|
3,1,8.1|
3,2,6.6|
3,4,7.6|
4,0,1.2|
4,1,1.7|
4,2,9.9|
4,3,2.7|
];
constraint_x12_x6=[
0,1,0.92|
0,2,5.1|
0,3,3.3|
0,4,0.51|
1,0,8.8|
1,2,3.5|
1,3,5|
1,4,7.3|
2,0,8.5|
2,1,7|
2,3,8.3|
2,4,6.9|
3,0,7.5|
3,1,8.2|
3,2,0.63|
3,4,8.2|
4,0,3.6|
4,1,4.3|
4,2,1.6|
4,3,0.39|
];
constraint_x12_x7=[
0,1,4.4|
0,2,7.4|
0,3,2.5|
0,4,8|
1,0,2.9|
1,2,5.8|
1,3,4.5|
1,4,9.8|
2,0,9.4|
2,1,2.5|
2,3,6.9|
2,4,5.9|
3,0,5.9|
3,1,9.7|
3,2,0.26|
3,4,8.7|
4,0,3.6|
4,1,3.7|
4,2,3.5|
4,3,1.5|
];
constraint_x12_x8=[
0,1,1.5|
0,2,4.7|
0,3,0.44|
0,4,3|
1,0,9.5|
1,2,1.8|
1,3,4.8|
1,4,3.7|
2,0,8.4|
2,1,10|
2,3,2.9|
2,4,5.5|
3,0,7.4|
3,1,9.4|
3,2,1.4|
3,4,7.2|
4,0,9.9|
4,1,6.6|
4,2,7.1|
4,3,7.7|
];
constraint_x12_x10=[
0,1,7.3|
0,2,5.7|
0,3,6.7|
0,4,7.3|
1,0,9.6|
1,2,7.4|
1,3,9|
1,4,4|
2,0,8.9|
2,1,0.26|
2,3,0.96|
2,4,3.5|
3,0,8|
3,1,4.2|
3,2,0.38|
3,4,1.8|
4,0,9|
4,1,0.23|
4,2,3.2|
4,3,6.5|
];
constraint_x13_x2=[
0,1,6|
0,2,9|
0,3,9.4|
0,4,3.6|
1,0,5.8|
1,2,8|
1,3,6.8|
1,4,7.2|
2,0,8.6|
2,1,1.2|
2,3,8.9|
2,4,1.6|
3,0,2|
3,1,1.1|
3,2,7.5|
3,4,2.4|
4,0,2.6|
4,1,0.13|
4,2,1.3|
4,3,8.1|
];
constraint_x13_x6=[
0,1,7.9|
0,2,1.3|
0,3,8.9|
0,4,4.1|
1,0,0.39|
1,2,6.3|
1,3,6.2|
1,4,8.3|
2,0,8.8|
2,1,9.7|
2,3,9.3|
2,4,6.2|
3,0,2.6|
3,1,5.3|
3,2,6.4|
3,4,0.95|
4,0,1.2|
4,1,0.35|
4,2,3.7|
4,3,3|
];
constraint_x13_x7=[
0,1,7.5|
0,2,2.6|
0,3,0.32|
0,4,9.3|
1,0,2.8|
1,2,7.4|
1,3,5.9|
1,4,8.7|
2,0,8.3|
2,1,2.5|
2,3,9.9|
2,4,8.2|
3,0,9|
3,1,7.8|
3,2,0.79|
3,4,7.1|
4,0,3.9|
4,1,3.4|
4,2,3|
4,3,5.5|
];
constraint_x13_x12=[
0,1,3.3|
0,2,4|
0,3,7.9|
0,4,7.4|
1,0,7.3|
1,2,8.2|
1,3,4.9|
1,4,8.8|
2,0,4.4|
2,1,3.4|
2,3,5.6|
2,4,4|
3,0,2.7|
3,1,2.8|
3,2,2.1|
3,4,4|
4,0,1.2|
4,1,4.6|
4,2,9.3|
4,3,3.8|
];
constraint_x14_x2=[
0,1,7.4|
0,2,9.5|
0,3,6.5|
0,4,8.4|
1,0,0.8|
1,2,2.2|
1,3,1.5|
1,4,2.7|
2,0,5.5|
2,1,2.8|
2,3,8.2|
2,4,7.9|
3,0,0.094|
3,1,3.6|
3,2,6.2|
3,4,3.8|
4,0,0.24|
4,1,0.39|
4,2,7|
4,3,2.8|
];
constraint_x14_x4=[
0,1,7.8|
0,2,0.89|
0,3,4.1|
0,4,2.4|
1,0,6.4|
1,2,0.71|
1,3,9.2|
1,4,0.96|
2,0,3.5|
2,1,0.94|
2,3,1.7|
2,4,1.4|
3,0,8.5|
3,1,7.2|
3,2,5.1|
3,4,7.9|
4,0,1.8|
4,1,3.7|
4,2,2.4|
4,3,0.16|
];
constraint_x14_x5=[
0,1,6.6|
0,2,5.2|
0,3,4.7|
0,4,2.1|
1,0,6|
1,2,6.7|
1,3,0.45|
1,4,6.9|
2,0,3.7|
2,1,2.4|
2,3,3.5|
2,4,8.9|
3,0,2.7|
3,1,8.6|
3,2,0.29|
3,4,9.5|
4,0,5.9|
4,1,2|
4,2,8.9|
4,3,3.9|
];
constraint_x14_x9=[
0,1,3.3|
0,2,3.3|
0,3,6.4|
0,4,2.8|
1,0,5.9|
1,2,1.3|
1,3,0.98|
1,4,3.5|
2,0,7.1|
2,1,4.3|
2,3,5.3|
2,4,5.5|
3,0,0.71|
3,1,7.4|
3,2,1.9|
3,4,3.9|
4,0,4.6|
4,1,9.6|
4,2,3.6|
4,3,2.4|
];
constraint_x14_x10=[
0,1,4.1|
0,2,1.7|
0,3,7.9|
0,4,3.1|
1,0,6.9|
1,2,1.8|
1,3,3.1|
1,4,7.3|
2,0,4.2|
2,1,6.4|
2,3,9.9|
2,4,8.4|
3,0,3.3|
3,1,7.6|
3,2,4|
3,4,0.51|
4,0,0.49|
4,1,1.6|
4,2,0.17|
4,3,2.9|
];
constraint_x14_x12=[
0,1,1.5|
0,2,6.3|
0,3,7.4|
0,4,9.3|
1,0,4.6|
1,2,5.5|
1,3,8.8|
1,4,4.8|
2,0,6.1|
2,1,4.7|
2,3,0.53|
2,4,8.3|
3,0,2.7|
3,1,8.9|
3,2,5.9|
3,4,9.8|
4,0,1.7|
4,1,8.5|
4,2,7.6|
4,3,3.6|
];
constraint_x15_x1=[
0,1,6.5|
0,2,2|
0,3,7.3|
0,4,3.5|
1,0,2.5|
1,2,5.3|
1,3,7|
1,4,5.3|
2,0,1.8|
2,1,9.4|
2,3,6.4|
2,4,5.6|
3,0,5.1|
3,1,4.3|
3,2,1.7|
3,4,4|
4,0,4.3|
4,1,2.8|
4,2,4.1|
4,3,5.3|
];
constraint_x15_x2=[
0,1,5.1|
0,2,0.53|
0,3,6.6|
0,4,6.3|
1,0,0.51|
1,2,0.87|
1,3,4.3|
1,4,4|
2,0,4.6|
2,1,7.1|
2,3,0.81|
2,4,2.7|
3,0,3.7|
3,1,7.7|
3,2,9|
3,4,3.5|
4,0,9.7|
4,1,3|
4,2,2|
4,3,3.8|
];
constraint_x15_x4=[
0,1,1.5|
0,2,8.2|
0,3,9.3|
0,4,2|
1,0,0.077|
1,2,7.4|
1,3,7|
1,4,8.2|
2,0,0.27|
2,1,6.8|
2,3,0.74|
2,4,8.4|
3,0,4.9|
3,1,4.5|
3,2,7.7|
3,4,1.4|
4,0,8.2|
4,1,6|
4,2,4.1|
4,3,6.1|
];
constraint_x15_x6=[
0,1,9.7|
0,2,9|
0,3,9.9|
0,4,3.2|
1,0,7.9|
1,2,5.3|
1,3,4.9|
1,4,9.4|
2,0,0.7|
2,1,2.9|
2,3,7|
2,4,2.6|
3,0,9|
3,1,5.2|
3,2,6.3|
3,4,3.3|
4,0,3.4|
4,1,3.9|
4,2,0.13|
4,3,4.6|
];
constraint_x15_x7=[
0,1,8|
0,2,0.18|
0,3,1.7|
0,4,7.7|
1,0,4.2|
1,2,5.5|
1,3,2.6|
1,4,4.3|
2,0,3.1|
2,1,7.6|
2,3,7.2|
2,4,9.7|
3,0,2.1|
3,1,3.6|
3,2,4.7|
3,4,9.4|
4,0,0.9|
4,1,6.8|
4,2,9.5|
4,3,8.2|
];
constraint_x15_x9=[
0,1,8.8|
0,2,6.4|
0,3,4.9|
0,4,6.8|
1,0,5|
1,2,8.6|
1,3,7.2|
1,4,2|
2,0,4.4|
2,1,8.8|
2,3,5.9|
2,4,6.4|
3,0,5.6|
3,1,5.5|
3,2,6.7|
3,4,0.59|
4,0,4.7|
4,1,4|
4,2,1.9|
4,3,1.9|
];
constraint_x15_x10=[
0,1,0.31|
0,2,2.6|
0,3,4.9|
0,4,7.9|
1,0,5.3|
1,2,4.4|
1,3,2.4|
1,4,1.9|
2,0,3.4|
2,1,6.8|
2,3,5.7|
2,4,3.2|
3,0,8.4|
3,1,4.2|
3,2,7.1|
3,4,6.5|
4,0,9.8|
4,1,0.44|
4,2,2.8|
4,3,9.5|
];
constraint_x15_x11=[
0,1,0.019|
0,2,4.4|
0,3,9.6|
0,4,2.2|
1,0,3.7|
1,2,0.49|
1,3,2.3|
1,4,3.3|
2,0,9.6|
2,1,5|
2,3,6.7|
2,4,1.9|
3,0,6.2|
3,1,7|
3,2,5.9|
3,4,8.2|
4,0,9.7|
4,1,3.1|
4,2,5.4|
4,3,4.8|
];
constraint_x15_x13=[
0,1,2.6|
0,2,0.81|
0,3,3.5|
0,4,5.8|
1,0,8.3|
1,2,4.9|
1,3,8.3|
1,4,9.8|
2,0,2.9|
2,1,5.6|
2,3,5.4|
2,4,7.6|
3,0,9.6|
3,1,0.24|
3,2,7|
3,4,9.3|
4,0,4.7|
4,1,6.2|
4,2,7.1|
4,3,9.1|
];
constraint_x1_y1=[
0,0,4.4|
0,1,6.2|
0,2,0.7|
0,3,4.8|
0,4,5.5|
1,0,7.9|
1,1,8|
1,2,4.1|
1,3,9.1|
1,4,3.8|
2,0,3.2|
2,1,4.8|
2,2,5.9|
2,3,2.3|
2,4,3.4|
3,0,7|
3,1,9.8|
3,2,5|
3,3,3.5|
3,4,6.5|
4,0,7|
4,1,8|
4,2,2.8|
4,3,3.5|
4,4,7.5|
];
constraint_x2_y2=[
0,0,6.8|
0,1,6.4|
0,2,8.3|
0,3,1.2|
0,4,2.4|
1,0,8.4|
1,1,4.5|
1,2,7.1|
1,3,0.51|
1,4,2.8|
2,0,2.7|
2,1,1.6|
2,2,0.67|
2,3,9.7|
2,4,7.4|
3,0,0.049|
3,1,8.8|
3,2,7.6|
3,3,5.9|
3,4,1.4|
4,0,0.96|
4,1,7.6|
4,2,1.9|
4,3,8|
4,4,5|
];
constraint_x3_y3=[
0,0,4.7|
0,1,8.7|
0,2,3.6|
0,3,1|
0,4,6.4|
1,0,5.7|
1,1,2.2|
1,2,7.3|
1,3,2.1|
1,4,5.1|
2,0,2.3|
2,1,1.9|
2,2,2.3|
2,3,5.7|
2,4,4.2|
3,0,7|
3,1,3.2|
3,2,5.4|
3,3,4.3|
3,4,9.3|
4,0,1.3|
4,1,8.2|
4,2,5.8|
4,3,2.1|
4,4,0.56|
];
initial_distribution_y1=[0.036,0.29,0.34,0.28,0.049];
initial_distribution_y2=[0.13,0.043,0.27,0.28,0.28];
initial_distribution_y3=[0.046,0.27,0.14,0.19,0.35];
transition_y1=[
0.3,0.031,0.32,0.077,0.28|
0.32,0.3,0.016,0.1,0.26|
0.1,0.29,0.21,0.17,0.23|
0.064,0.1,0.39,0.43,0.014|
0.068,0.2,0.34,0.068,0.32|
];
transition_y2=[
0.048,0.079,0.27,0.34,0.26|
0.36,0.054,0.13,0.14,0.32|
0.14,0.21,0.021,0.28,0.35|
0.064,0.36,0.11,0.22,0.24|
0.25,0.22,0.059,0.37,0.1|
];
transition_y3=[
0.063,0.2,0.016,0.37,0.35|
0.11,0.058,0.4,0.11,0.33|
0.18,0.36,0.074,0.11,0.28|
0.15,0.31,0.073,0.29,0.18|
0.27,0.31,0.1,0.15,0.16|
];
